(declare-fun y () Int)
(declare-fun x () Int)

(assert (
and (and (and (and (
not (= (/ (* y 38) 34) (+ (- x (- x 59)) 55))
) (
<= (+ (* x (/ x x)) x) (* y (* 27 (/ 14 15)))
)) (
< (/ (/ y (/ 7 (* 33 74))) (/ (* 32 81) 4)) (+ x (+ 35 80))
)) (and (
<= (/ (/ (* (* 72 30) y) (* 100 31)) 22) (+ 59 (/ 61 52))
) (
< (- (* (/ x 67) (- x 43)) (+ x 1)) (* (/ 14 (/ 13 84)) y)
))) (and (and (and (
< (/ y 42) (+ (/ 46 (+ x 6)) (- (* 5 99) 21))
) (
not (= (* (* y 72) (/ 62 46)) (+ 54 (* (/ (- x x) 17) 16)))
)) (
> (* 82 y) (* (- x (/ x x)) 26)
)) (and (
>= y (+ (/ (+ x (/ (* 35 (/ x 26)) 29)) (* x 41)) (/ x x))
) (
> y (- 16 (* x (/ x x)))
)))
))